set E := 0 1 2 3 4 5;
set T := C M None;

param s: 0 1 2 3 4 5:=
0  0  6   9  6  9  4
1  0  0   4  6  5  10
2  0  3   0  5  6  11
3  0  6   7  0  7  12
4  0  12  10 5  0  4
5  0  5   6  12 5  0;

param p:=
0 0
1 8
2 8
3 10
4 10
5 5;

param t:=
0 None
1 C
2 C
3 C
4 M
5 M;